(declare-fun _for_it_23 () Int)
(declare-fun _for_it_45 () Int)
(declare-fun kfdia () Int)
(declare-fun kidia () Int)
(declare-fun klev () Int)
(declare-fun ncldtop () Int)

(assert (forall ((_if_cond_28_val (Array Int Int)) (_if_cond_29_val (Array Int Int)) (_if_cond_30_val (Array Int Int)) (_if_cond_31_val (Array Int Int)))
  (and
    (or
      (not (= (select _if_cond_28_val (- (+ _for_it_45 (* (- (+ _for_it_23 1) ncldtop) (- kfdia kidia)) 1) kidia)) 1))
      (= (select _if_cond_31_val (- (+ _for_it_45 (* (- (+ _for_it_23 1) ncldtop) (- kfdia kidia)) 1) kidia)) 1)
      (not (= (select _if_cond_28_val (- (+ _for_it_45 (* (- (+ _for_it_23 1) ncldtop) (- kfdia kidia)) 2) kidia)) 1))
      (= (select _if_cond_31_val (- (+ _for_it_45 (* (- (+ _for_it_23 1) ncldtop) (- kfdia kidia)) 2) kidia)) 1)
      (not (= _for_it_45 (+ _for_it_45 1)))
    )
    (or
      (not (= (select _if_cond_28_val (- (+ _for_it_45 (* (- (+ _for_it_23 1) ncldtop) (- kfdia kidia)) 1) kidia)) 1))
      (= (select _if_cond_31_val (- (+ _for_it_45 (* (- (+ _for_it_23 1) ncldtop) (- kfdia kidia)) 1) kidia)) 1)
      (not (= (select _if_cond_28_val (- (+ _for_it_45 (* (- (+ _for_it_23 1) ncldtop) (- kfdia kidia)) 2) kidia)) 1))
      (not (= (select _if_cond_30_val 0) 1))
      (not (= _for_it_45 (+ _for_it_45 1)))
    )
    (or
      (not (= (select _if_cond_28_val (- (+ _for_it_45 (* (- (+ _for_it_23 1) ncldtop) (- kfdia kidia)) 2) kidia)) 1))
      (not (= (select _if_cond_28_val (- (+ _for_it_45 (* (- (+ _for_it_23 1) ncldtop) (- kfdia kidia)) 1) kidia)) 1))
      (= (select _if_cond_31_val (- (+ _for_it_45 (* (- (+ _for_it_23 1) ncldtop) (- kfdia kidia)) 1) kidia)) 1)
      (not (= _for_it_45 (+ _for_it_45 1)))
    )
    (or
      (not (= (select _if_cond_28_val (- (+ _for_it_45 (* (- (+ _for_it_23 1) ncldtop) (- kfdia kidia)) 1) kidia)) 1))
      (not (= (select _if_cond_31_val (- (+ _for_it_45 (* (- (+ _for_it_23 1) ncldtop) (- kfdia kidia)) 1) kidia)) 1))
      (not (= (select _if_cond_28_val (- (+ _for_it_45 (* (- (+ _for_it_23 1) ncldtop) (- kfdia kidia)) 2) kidia)) 1))
      (not (= (select _if_cond_31_val (- (+ _for_it_45 (* (- (+ _for_it_23 1) ncldtop) (- kfdia kidia)) 2) kidia)) 1))
      (not (= _for_it_45 (+ _for_it_45 1)))
    )
    (or
      (not (= (select _if_cond_28_val (- (+ _for_it_45 (* (- (+ _for_it_23 1) ncldtop) (- kfdia kidia)) 1) kidia)) 1))
      (not (= (select _if_cond_31_val (- (+ _for_it_45 (* (- (+ _for_it_23 1) ncldtop) (- kfdia kidia)) 1) kidia)) 1))
      (not (= (select _if_cond_28_val (- (+ _for_it_45 (* (- (+ _for_it_23 1) ncldtop) (- kfdia kidia)) 2) kidia)) 1))
      (not (= (select _if_cond_30_val 0) 1))
      (not (= _for_it_45 (+ _for_it_45 1)))
    )
    (or
      (not (= (select _if_cond_28_val (- (+ _for_it_45 (* (- (+ _for_it_23 1) ncldtop) (- kfdia kidia)) 2) kidia)) 1))
      (not (= (select _if_cond_28_val (- (+ _for_it_45 (* (- (+ _for_it_23 1) ncldtop) (- kfdia kidia)) 1) kidia)) 1))
      (not (= (select _if_cond_31_val (- (+ _for_it_45 (* (- (+ _for_it_23 1) ncldtop) (- kfdia kidia)) 1) kidia)) 1))
      (not (= _for_it_45 (+ _for_it_45 1)))
    )
    (and
      (<= (+ kidia (- 1)) _for_it_45)
      (<= kidia (+ kfdia (- 1)))
      (<= ncldtop (+ klev (- 1)))
      (<= (+ _for_it_45 1) (+ kfdia (- 1)))
    )
    (not (= (- (+ _for_it_45 (* (- (+ _for_it_23 1) ncldtop) (- kfdia kidia)) 1) kidia) (- (+ _for_it_45 (* (- (+ _for_it_23 1) ncldtop) (- kfdia kidia)) 2) kidia)))
    (or
      (not (= (select _if_cond_28_val (- (+ _for_it_45 (* (- (+ _for_it_23 1) ncldtop) (- kfdia kidia)) 2) kidia)) 1))
      (not (= (select _if_cond_28_val (- (+ _for_it_45 (* (- (+ _for_it_23 1) ncldtop) (- kfdia kidia)) 1) kidia)) 1))
      (not (= (- (+ _for_it_45 (* (- (+ _for_it_23 1) ncldtop) (- kfdia kidia)) 1) kidia) (- (+ _for_it_45 (* (- (+ _for_it_23 1) ncldtop) (- kfdia kidia)) 2) kidia)))
    )
    (or
      (not (= (select _if_cond_28_val (- (+ _for_it_45 (* (- (+ _for_it_23 1) ncldtop) (- kfdia kidia)) 1) kidia)) 1))
      (not (= (select _if_cond_28_val (- (+ _for_it_45 (* (- (+ _for_it_23 1) ncldtop) (- kfdia kidia)) 2) kidia)) 1))
      (= (select _if_cond_31_val (- (+ _for_it_45 (* (- (+ _for_it_23 1) ncldtop) (- kfdia kidia)) 2) kidia)) 1)
      (not (= (select _if_cond_30_val 0) 1))
      (not (= _for_it_45 (+ _for_it_45 1)))
    )
    (or
      (not (= (select _if_cond_28_val (- (+ _for_it_45 (* (- (+ _for_it_23 1) ncldtop) (- kfdia kidia)) 1) kidia)) 1))
      (not (= (select _if_cond_28_val (- (+ _for_it_45 (* (- (+ _for_it_23 1) ncldtop) (- kfdia kidia)) 2) kidia)) 1))
      (not (= (select _if_cond_31_val (- (+ _for_it_45 (* (- (+ _for_it_23 1) ncldtop) (- kfdia kidia)) 2) kidia)) 1))
      (not (= (select _if_cond_30_val 0) 1))
      (not (= _for_it_45 (+ _for_it_45 1)))
    )
    (or
      (not (= (select _if_cond_28_val (- (+ _for_it_45 (* (- (+ _for_it_23 1) ncldtop) (- kfdia kidia)) 2) kidia)) 1))
      (not (= (select _if_cond_30_val 0) 1))
      (not (= _for_it_45 (+ _for_it_45 1)))
      (not (= (select _if_cond_28_val (- (+ _for_it_45 (* (- (+ _for_it_23 1) ncldtop) (- kfdia kidia)) 1) kidia)) 1))
    )
    (or
      (not (= (select _if_cond_28_val (- (+ _for_it_45 (* (- (+ _for_it_23 1) ncldtop) (- kfdia kidia)) 2) kidia)) 1))
      (not (= (select _if_cond_28_val (- (+ _for_it_45 (* (- (+ _for_it_23 1) ncldtop) (- kfdia kidia)) 1) kidia)) 1))
      (not (= (select _if_cond_30_val 0) 1))
      (not (= _for_it_45 (+ _for_it_45 1)))
    )
    (or
      (not (= (select _if_cond_28_val (- (+ _for_it_45 (* (- (+ _for_it_23 1) ncldtop) (- kfdia kidia)) 2) kidia)) 1))
      (not (= (select _if_cond_28_val (- (+ _for_it_45 (* (- (+ _for_it_23 1) ncldtop) (- kfdia kidia)) 1) kidia)) 1))
    )
    (or
      (not (= (select _if_cond_28_val (- (+ _for_it_45 (* (- (+ _for_it_23 1) ncldtop) (- kfdia kidia)) 2) kidia)) 1))
      (not (= (select _if_cond_28_val (- (+ _for_it_45 (* (- (+ _for_it_23 1) ncldtop) (- kfdia kidia)) 1) kidia)) 1))
      (not (= _for_it_45 (+ _for_it_45 1)))
    )
    (or
      (not (= (select _if_cond_28_val (- (+ _for_it_45 (* (- (+ _for_it_23 1) ncldtop) (- kfdia kidia)) 2) kidia)) 1))
      (not (= (select _if_cond_28_val (- (+ _for_it_45 (* (- (+ _for_it_23 1) ncldtop) (- kfdia kidia)) 1) kidia)) 1))
      (= (select _if_cond_31_val (- (+ _for_it_45 (* (- (+ _for_it_23 1) ncldtop) (- kfdia kidia)) 2) kidia)) 1)
      (not (= _for_it_45 (+ _for_it_45 1)))
    )
    (or
      (not (= (select _if_cond_28_val (- (+ _for_it_45 (* (- (+ _for_it_23 1) ncldtop) (- kfdia kidia)) 2) kidia)) 1))
      (not (= (select _if_cond_28_val (- (+ _for_it_45 (* (- (+ _for_it_23 1) ncldtop) (- kfdia kidia)) 1) kidia)) 1))
      (not (= (select _if_cond_31_val (- (+ _for_it_45 (* (- (+ _for_it_23 1) ncldtop) (- kfdia kidia)) 2) kidia)) 1))
      (not (= _for_it_45 (+ _for_it_45 1)))
    )
    (or
      (not (= (select _if_cond_28_val (- (+ _for_it_45 (* (- (+ _for_it_23 1) ncldtop) (- kfdia kidia)) 2) kidia)) 1))
      (= (select _if_cond_29_val (- (+ _for_it_45 (* (- (+ _for_it_23 1) ncldtop) (- kfdia kidia)) 2) kidia)) 1)
      (not (= (select _if_cond_28_val (- (+ _for_it_45 (* (- (+ _for_it_23 1) ncldtop) (- kfdia kidia)) 1) kidia)) 1))
    )
    (or
      (not (= (select _if_cond_28_val (- (+ _for_it_45 (* (- (+ _for_it_23 1) ncldtop) (- kfdia kidia)) 2) kidia)) 1))
      (not (= (select _if_cond_28_val (- (+ _for_it_45 (* (- (+ _for_it_23 1) ncldtop) (- kfdia kidia)) 1) kidia)) 1))
      (not (= (select _if_cond_29_val (- (+ _for_it_45 (* (- (+ _for_it_23 1) ncldtop) (- kfdia kidia)) 2) kidia)) 1))
    )
    (or
      (not (= (select _if_cond_28_val (- (+ _for_it_45 (* (- (+ _for_it_23 1) ncldtop) (- kfdia kidia)) 2) kidia)) 1))
      (not (= (select _if_cond_28_val (- (+ _for_it_45 (* (- (+ _for_it_23 1) ncldtop) (- kfdia kidia)) 1) kidia)) 1))
      (= (select _if_cond_29_val (- (+ _for_it_45 (* (- (+ _for_it_23 1) ncldtop) (- kfdia kidia)) 1) kidia)) 1)
    )
    (or
      (not (= (select _if_cond_28_val (- (+ _for_it_45 (* (- (+ _for_it_23 1) ncldtop) (- kfdia kidia)) 2) kidia)) 1))
      (= (select _if_cond_29_val (- (+ _for_it_45 (* (- (+ _for_it_23 1) ncldtop) (- kfdia kidia)) 2) kidia)) 1)
      (= (select _if_cond_29_val (- (+ _for_it_45 (* (- (+ _for_it_23 1) ncldtop) (- kfdia kidia)) 1) kidia)) 1)
      (not (= (select _if_cond_28_val (- (+ _for_it_45 (* (- (+ _for_it_23 1) ncldtop) (- kfdia kidia)) 1) kidia)) 1))
    )
    (or
      (not (= (select _if_cond_28_val (- (+ _for_it_45 (* (- (+ _for_it_23 1) ncldtop) (- kfdia kidia)) 2) kidia)) 1))
      (not (= (select _if_cond_28_val (- (+ _for_it_45 (* (- (+ _for_it_23 1) ncldtop) (- kfdia kidia)) 1) kidia)) 1))
      (not (= (select _if_cond_29_val (- (+ _for_it_45 (* (- (+ _for_it_23 1) ncldtop) (- kfdia kidia)) 2) kidia)) 1))
      (= (select _if_cond_29_val (- (+ _for_it_45 (* (- (+ _for_it_23 1) ncldtop) (- kfdia kidia)) 1) kidia)) 1)
    )
    (or
      (not (= (select _if_cond_28_val (- (+ _for_it_45 (* (- (+ _for_it_23 1) ncldtop) (- kfdia kidia)) 2) kidia)) 1))
      (not (= (select _if_cond_28_val (- (+ _for_it_45 (* (- (+ _for_it_23 1) ncldtop) (- kfdia kidia)) 1) kidia)) 1))
      (not (= (select _if_cond_29_val (- (+ _for_it_45 (* (- (+ _for_it_23 1) ncldtop) (- kfdia kidia)) 1) kidia)) 1))
    )
    (or
      (not (= (select _if_cond_28_val (- (+ _for_it_45 (* (- (+ _for_it_23 1) ncldtop) (- kfdia kidia)) 2) kidia)) 1))
      (= (select _if_cond_29_val (- (+ _for_it_45 (* (- (+ _for_it_23 1) ncldtop) (- kfdia kidia)) 2) kidia)) 1)
      (not (= (select _if_cond_29_val (- (+ _for_it_45 (* (- (+ _for_it_23 1) ncldtop) (- kfdia kidia)) 1) kidia)) 1))
      (not (= (select _if_cond_28_val (- (+ _for_it_45 (* (- (+ _for_it_23 1) ncldtop) (- kfdia kidia)) 1) kidia)) 1))
    )
    (or
      (not (= (select _if_cond_28_val (- (+ _for_it_45 (* (- (+ _for_it_23 1) ncldtop) (- kfdia kidia)) 2) kidia)) 1))
      (not (= (select _if_cond_28_val (- (+ _for_it_45 (* (- (+ _for_it_23 1) ncldtop) (- kfdia kidia)) 1) kidia)) 1))
      (not (= (select _if_cond_29_val (- (+ _for_it_45 (* (- (+ _for_it_23 1) ncldtop) (- kfdia kidia)) 2) kidia)) 1))
      (not (= (select _if_cond_29_val (- (+ _for_it_45 (* (- (+ _for_it_23 1) ncldtop) (- kfdia kidia)) 1) kidia)) 1))
    )
  )
))

(check-sat)